unsat
(:max-memory         18.05
 :memory             17.96
 :nlsat-conflicts    5
 :nlsat-propagations 14
 :nlsat-stages       6
 :num-allocs         27562
 :rlimit-count       1939
 :time               0.00
 :total-time         0.01)
